c ---- [ banner ] ------------------------------------------------------------
c
c Kissat SAT Solver
c 
c Copyright (c) 2021-2022 Armin Biere University of Freiburg
c Copyright (c) 2019-2021 Armin Biere Johannes Kepler University Linz
c 
c Version 3.0.0 97917ddf2b12adc6f63c7b2a5a403a1ee7d81836
c gcc (Ubuntu 9.4.0-1ubuntu1~20.04.1) 9.4.0 -W -Wall -O3 -DNDEBUG
c Fri Oct 7 14:23:58 PDT 2022 Linux jap-Lenovo-Yoga-C740-15IML 5.15.0-48-generic x86_64
c
c ---- [ parsing ] -----------------------------------------------------------
c
c opened and reading DIMACS file:
c
c   Pigeon10Holes9
c
c parsed 'p cnf 90 415' header
c closing input after reading 4263 bytes (4 KB)
c finished parsing after 0.00 seconds
c
c ---- [ solving ] -----------------------------------------------------------
c
c  seconds switched rate      trail  variables
c         MB reductions conflicts glue   remaining
c          level restarts redundant irredundant
c
c *  0.00  1 0 0 0  0 0   0   0 0% 0 415 90 99%
c {  0.00  1 0 0 0  0 0   0   0 0% 0 415 90 99%
c u  0.01  3 10 0 0 25 2 690 406 97% 7 415 90 99%
c -  0.01  3 10 0 1 34 2 1002 322 96% 7 415 90 99%
c }  0.01  3 10 1 1 34 2 1002 322 96% 7 415 90 99%
c [  0.01  3 0 1 1 34 0 1002 322 0% 0 415 90 99%
c B  0.01  3 0 1 1 34 0 1002 322 0% 0 415 90 99%
c u  0.01  3 14 1 1 34 1 1380 439 96% 9 415 90 99%
c ]  0.02  3 13 2 1 34 1 1753 804 95% 9 415 90 99%
c {  0.02  3 10 2 1 34 2 1753 804 96% 7 415 90 99%
c -  0.02  3 10 2 2 34 2 2002 436 96% 7 415 90 99%
c }  0.03  3 10 3 2 79 2 2540 974 96% 7 415 90 99%
c [  0.03  3 13 3 2 79 1 2540 974 95% 9 415 90 99%
c W  0.03  3 13 3 2 79 1 2540 974 95% 9 415 90 99%
c u  0.03  3 16 3 2 79 1 2817 1163 95% 9 415 90 99%
c -  0.04  3 16 3 3 79 1 3417 841 94% 9 415 90 99%
c e  0.04  3 16 3 3 79 1 3454 878 94% 9 405 80 88%
c ^  0.04  3 16 3 3 79 1 3454 878 94% 9 405 80 88%
c ]  0.05  3 15 4 3 80 1 4439 1136 94% 9 405 80 88%
c {  0.05  3 10 4 3 80 2 4439 1136 96% 7 405 80 88%
c
c  seconds  switched  rate         trail  variables
c         MB reductions conflicts     glue    remaining
c          level restarts   redundant irredundant
c
c u  0.06  3 10 4 3 121 2 5048 1480 96% 7 405 80 88%
c -  0.06  3 9 4 4 123 2 5151 699 96% 7 405 80 88%
c }  0.07  3 9 5 4 226 2 6586 2120 96% 7 405 80 88%
c [  0.07  3 15 5 4 226 1 6586 2120 94% 9 405 80 88%
c I  0.07  3 15 5 4 226 1 6586 2120 94% 9 405 80 88%
c ^  0.08  3 17 5 4 226 1 6881 2392 94% 10 405 80 88%
c -  0.08  3 17 5 5 226 1 7151 1514 94% 11 405 80 88%
c u  0.09  3 16 5 5 227 1 8098 1324 95% 10 405 80 88%
c -  0.11  3 16 5 6 228 1 9388 959 95% 10 405 80 88%
c ]  0.11  3 16 6 6 228 1 9786 1348 95% 10 405 80 88%
c {  0.11  3 9 6 6 228 2 9786 1348 96% 7 405 80 88%
c }  0.14  3 9 7 6 435 2 11693 3222 96% 7 405 80 88%
c [  0.14  3 16 7 6 435 1 11693 3222 95% 10 405 80 88%
c B  0.14  3 16 7 6 435 1 11693 3222 95% 10 405 80 88%
c -  0.14  3 16 7 7 435 1 11838 1879 95% 10 405 80 88%
c u  0.14  3 16 7 7 435 1 12027 1789 95% 10 405 80 88%
c v  0.14  3 16 7 7 435 1 12027 1786 95% 10 405 80 88%
c ^  0.18  4 16 7 7 437 1 14312 3963 95% 10 405 80 88%
c ]  0.18  4 16 8 7 437 1 14461 4101 95% 10 405 80 88%
c {  0.18  4 9 8 7 437 2 14461 4101 96% 7 405 80 88%
c
c  seconds  switched  rate          trail  variables
c         MB reductions conflicts      glue    remaining
c          level restarts    redundant irredundant
c
c -  0.18  3 10 8 8 441 2 14483 1896 96% 7 405 80 88%
c u  0.22  3 10 8 8 729 2 16860 4096 96% 7 405 80 88%
c v  0.22  3 10 8 8 729 2 16860 4091 96% 7 405 80 88%
c -  0.23  4 10 8 9 775 2 17312 2223 96% 7 405 80 88%
c }  0.23  4 10 9 9 776 2 17808 2717 96% 7 405 80 88%
c [  0.23  4 16 9 9 776 1 17808 2717 95% 10 405 80 88%
c W  0.23  4 16 9 9 776 1 17808 2717 95% 10 405 80 88%
c -  0.27  4 16 9 10 778 1 20312 2472 95% 11 405 80 88%
c ]  0.29  4 16 10 10 778 1 21972 4089 95% 11 405 80 88%
c {  0.29  4 10 10 10 778 2 21972 4089 96% 7 405 80 88%
c u  0.30  4 10 10 10 823 2 22631 3092 96% 7 405 80 88%
c v  0.30  4 10 10 10 823 2 22631 3063 96% 7 405 80 88%
c -  0.32  4 10 10 11 903 2 23477 2016 96% 7 405 80 88%
c ^  0.35  4 10 10 11 1004 2 26280 4795 96% 7 405 80 88%
c -  0.36  4 10 10 12 1012 2 26793 3489 96% 7 405 80 88%
c }  0.37  4 10 11 12 1057 2 27552 4236 96% 7 405 80 88%
c [  0.37  4 16 11 12 1057 1 27552 4236 95% 11 405 80 88%
c O  0.37  4 16 11 12 1057 1 27552 4236 95% 11 405 80 88%
c u  0.39  4 16 11 12 1058 1 29376 2664 95% 11 405 80 88%
c v  0.39  4 16 11 12 1058 1 29376 2646 95% 11 405 80 88%
c
c  seconds   switched    rate          trail   variables
c         MB   reductions  conflicts       glue    remaining
c          level    restarts    redundant  irredundant
c
c -  0.41  4 16 11 13 1059 1 30258 1320 95% 11 405 80 88%
c -  0.45  4 15 11 14 1061 1 33863 2175 94% 10 405 80 88%
c ]  0.45  4 15 12 14 1062 1 34487 2778 94% 10 405 80 88%
c {  0.45  4 10 12 14 1062 2 34487 2778 96% 7 405 80 88%
c u  0.49  4 10 12 14 1162 2 37115 2620 96% 7 405 80 88%
c v  0.49  4 10 12 14 1162 2 37115 2596 96% 7 405 80 88%
c -  0.50  3 10 12 15 1204 2 37605 939 96% 7 405 80 88%
c -  0.54  3 9 12 16 1321 2 41478 2846 96% 7 405 80 88%
c }  0.56  3 9 13 16 1373 2 42768 4132 96% 7 405 80 88%
c [  0.56  3 15 13 16 1373 1 42768 4132 94% 10 405 80 88%
c B  0.56  3 15 13 16 1373 1 42768 4132 94% 10 405 80 88%
c ^  0.56  3 15 13 16 1373 1 43285 4631 95% 10 405 80 88%
c -  0.60  4 15 13 17 1375 1 45478 3736 94% 11 405 80 88%
c u  0.61  4 15 13 17 1375 1 45875 1148 94% 10 405 80 88%
c v  0.61  4 15 13 17 1375 1 45875 1130 94% 10 405 80 88%
c ]  0.65  4 16 14 17 1377 1 48479 3556 94% 11 405 80 88%
c {  0.65  4 9 14 17 1377 2 48479 3556 96% 7 405 80 88%
c -  0.68  4 10 14 18 1501 2 49601 1937 96% 7 405 80 88%
c -  0.73  4 10 14 19 1599 2 53844 3785 96% 7 405 80 88%
c }  0.75  4 9 15 19 1638 2 55321 5253 96% 7 405 80 88%
c
c  seconds   switched    rate          trail   variables
c         MB   reductions  conflicts       glue    remaining
c          level    restarts    redundant  irredundant
c
c [  0.75  4 16 15 19 1638 1 55321 5253 94% 11 405 80 88%
c W  0.75  4 16 15 19 1638 1 55321 5253 94% 11 405 80 88%
c u  0.77  4 16 15 19 1638 1 55683 4714 94% 11 405 80 88%
c v  0.77  4 16 15 19 1638 1 55683 4686 94% 11 405 80 88%
c -  0.80  4 16 15 20 1640 1 58202 3928 94% 11 405 80 88%
c ]  0.87  4 16 16 20 1642 1 61820 7329 93% 11 405 80 88%
c {  0.87  4 9 16 20 1642 2 61820 7329 96% 7 405 80 88%
c -  0.90  4 10 16 21 1784 2 62675 3376 95% 7 405 80 88%
c !  0.95  4 10 16 21 2172 2 65794 6415 94% 7 405 80 88%
c }  0.97  4 10 17 21 2204 2 66464 7081 94% 7 405 80 88%
c [  0.97  4 16 17 21 2204 1 66464 7081 93% 11 405 80 88%
c u  0.98  4 16 17 21 2204 1 66553 6577 93% 11 405 80 88%
c v  0.99  4 16 17 21 2204 1 66553 6503 93% 11 405 80 88%
c i  1.00  4 16 17 21 2204 1 66864 6806 93% 11 405 79 87%
c -  1.00  4 16 17 22 2204 1 67258  98 93% 11 396 79 87%
c I  1.04  4 16 17 22 2206 1 70226 2915 93% 11 396 79 87%
c -  1.06  4 17 17 23 2208 1 71949 1536 93% 11 396 79 87%
c ]  1.12  4 18 18 23 2210 1 75536 4980 93% 12 396 79 87%
c {  1.12  4 10 18 23 2210 2 75536 4980 94% 7 396 79 87%
c -  1.14  3 10 18 24 2303 2 76744 2293 94% 7 396 79 87%
c
c  seconds   switched    rate          trail  variables
c         MB   reductions  conflicts      glue    remaining
c          level    restarts    redundant irredundant
c
c u  1.17  3 10 18 24 2405 2 78514 2290 94% 7 396 79 87%
c v  1.17  3 10 18 24 2405 2 78514 2282 94% 7 396 79 87%
c -  1.21  4 10 18 25 2507 2 81643 2609 95% 7 396 79 87%
c -  1.28  4 10 18 26 2848 2 86643 4842 95% 7 396 79 87%
c }  1.31  4 10 19 26 2941 2 89778 7959 95% 7 396 79 87%
c [  1.31  4 18 19 26 2941 1 89778 7959 93% 12 396 79 87%
c B  1.31  4 18 19 26 2941 1 89778 7959 93% 12 396 79 87%
c u  1.35  4 18 19 26 2942 1 91486 4208 93% 12 396 79 87%
c v  1.35  4 18 19 26 2942 1 91486 4175 93% 12 396 79 87%
c -  1.36  4 18 19 27 2942 1 91743 1347 93% 12 396 79 87%
c -  1.44  4 18 19 28 2946 1 96941 2350 92% 12 396 79 87%
c ]  1.48  4 18 20 28 2947 1 99630 4957 92% 12 396 79 87%
c {  1.48  4 10 20 28 2947 2 99630 4957 95% 7 396 79 87%
c -  1.54  4 10 20 29 3641 2 102232 2595 95% 8 396 79 87%
c u  1.60  4 10 20 29 4535 2 105573 5302 95% 8 396 79 87%
c v  1.61  4 10 20 29 4535 2 105573 5291 95% 8 396 79 87%
c -  1.64  4 10 20 30 4811 2 107619 2313 95% 8 396 79 87%
c }  1.69  4 10 21 30 4938 2 111609 6279 95% 8 396 79 87%
c [  1.69  4 18 21 30 4938 1 111609 6279 92% 12 396 79 87%
c W  1.69  4 18 21 30 4938 1 111609 6279 92% 12 396 79 87%
c
c  seconds   switched    rate           trail   variables
c         MB   reductions  conflicts        glue    remaining
c          level    restarts     redundant  irredundant
c
c -  1.71  4 18 21 31 4939 1 113098 3879 92% 12 396 79 87%
c -  1.83  4 19 21 32 4943 1 118666 3990 93% 13 396 79 87%
c ]  1.87  4 19 22 32 4944 1 120772 6067 93% 13 396 79 87%
c {  1.87  4 10 22 32 4944 2 120772 6067 95% 8 396 79 87%
c u  1.88  4 10 22 32 4947 2 120787 3905 95% 8 396 79 87%
c v  1.88  4 10 22 32 4947 2 120787 3877 95% 8 396 79 87%
c -  1.96  4 10 22 33 5170 2 124322 3445 95% 8 396 79 87%
c -  2.05  4 10 22 34 5319 2 130066 5831 95% 8 396 79 87%
c }  2.09  4 10 23 34 5402 2 132122 7872 95% 8 396 79 87%
c [  2.09  4 19 23 34 5402 1 132122 7872 93% 13 396 79 87%
c O  2.15  4 19 23 34 5404 1 135836 11486 93% 13 396 79 87%
c -  2.16  4 19 23 35 5404 1 135898 6415 93% 13 396 79 87%
c u  2.19  4 18 23 35 5405 1 137153 7074 93% 13 396 79 87%
c v  2.20  4 18 23 35 5405 1 137153 6975 93% 13 396 79 87%
c i  2.27  5 18 23 35 5407 1 140463 10163 93% 12 396 78 86%
c -  2.30  4 18 23 36 5408 1 141815 367 93% 12 387 78 86%
c ]  2.37  3 18 24 36 5409 1 145432 3754 93% 12 387 78 86%
c {  2.37  3 10 24 36 5409 2 145432 3754 95% 8 387 78 86%
c -  2.42  4 10 24 37 5496 2 147816 2992 95% 8 387 78 86%
c -  2.51  4 10 24 38 5789 2 153898 5643 95% 8 387 78 86%
c
c  seconds   switched    rate           trail  variables
c         MB   reductions  conflicts       glue    remaining
c          level    restarts     redundant irredundant
c
c u  2.54  4 10 24 38 5835 2 154682 2345 95% 8 387 78 86%
c v  2.54  4 10 24 38 5835 2 154682 2305 95% 8 387 78 86%
c -  2.62  4 10 24 39 5981 2 160062 4510 95% 8 387 78 86%
c }  2.63  4 10 25 39 5986 2 160556 4996 95% 8 387 78 86%
c [  2.63  4 18 25 39 5986 1 160556 4996 93% 12 387 78 86%
c B  2.68  4 18 25 39 5988 1 163577 7926 93% 12 387 78 86%
c i  2.71  4 18 25 39 5989 1 164998 9305 92% 12 387 77 85%
c -  2.73  4 18 25 40 5990 1 166307 242 92% 12 378 77 85%
c -  2.81  4 17 25 41 5992 1 172631 2572 93% 12 378 77 85%
c u  2.83  4 17 25 41 5992 1 173247 1972 93% 12 378 77 85%
c v  2.83  4 17 25 41 5992 1 173247 1958 93% 12 378 77 85%
c ]  2.88  4 17 26 41 5995 1 176189 4811 93% 12 378 77 85%
c {  2.88  4 10 26 41 5995 2 176189 4811 95% 8 378 77 85%
c -  2.92  4 10 26 42 6097 2 179034 3353 95% 8 378 77 85%
c -  3.01  4 10 26 43 6443 2 185514 5884 95% 8 378 77 85%
c -  3.12  4 10 26 44 6774 2 192071 7538 95% 8 378 77 85%
c u  3.14  4 10 26 44 6788 2 192845 852 95% 8 378 77 85%
c v  3.14  4 10 26 44 6788 2 192845 779 95% 8 378 77 85%
c -  3.22  4 10 26 45 6921 2 198705 4157 95% 8 378 77 85%
c }  3.23  4 10 27 45 6943 2 199275 4710 95% 8 378 77 85%
c
c  seconds   switched    rate           trail   variables
c         MB   reductions  conflicts        glue    remaining
c          level    restarts     redundant  irredundant
c
c [  3.23  4 17 27 45 6943 1 199275 4710 93% 12 378 77 85%
c W  3.23  4 17 27 45 6943 1 199275 4710 93% 12 378 77 85%
c -  3.32  4 17 27 46 6947 1 205414 5916 93% 12 378 77 85%
c -  3.43  5 17 27 47 6950 1 212197 5043 93% 12 378 77 85%
c u  3.47  5 17 27 47 6951 1 213633 5840 93% 12 378 77 85%
c v  3.48  5 17 27 47 6951 1 213633 5760 93% 12 378 77 85%
c ]  3.52  5 17 28 47 6952 1 215717 7736 92% 12 378 77 85%
c {  3.52  5 10 28 47 6952 2 215717 7736 95% 8 378 77 85%
c -  3.60  4 10 28 48 7188 2 219053 5119 95% 8 378 77 85%
c i  3.60  4 10 28 48 7188 2 219258 5323 95% 8 378 76 84%
c -  3.70  4 10 28 49 7578 2 225981 4215 95% 8 369 76 84%
c -  3.80  4 10 28 50 7926 2 232981 7493 95% 8 369 76 84%
c u  3.85  4 10 28 50 8071 2 235619 1723 95% 8 369 76 84%
c v  3.85  4 10 28 50 8071 2 235619 1649 95% 8 369 76 84%
c }  3.89  4 10 29 50 8165 2 237956 3972 95% 8 369 76 84%
c [  3.89  4 17 29 50 8165 1 237956 3972 92% 12 369 76 84%
c I  3.89  4 17 29 50 8165 1 237956 3972 92% 12 369 76 84%
c -  3.92  4 17 29 51 8166 1 240054 2567 92% 12 369 76 84%
c -  4.02  5 17 29 52 8171 1 247196 4565 92% 12 369 76 84%
c -  4.17  5 17 29 53 8174 1 254408 4663 92% 12 369 76 84%
c
c  seconds   switched    rate           trail   variables
c         MB   reductions  conflicts        glue    remaining
c          level    restarts     redundant  irredundant
c
c ]  4.19  5 17 30 53 8175 1 255610 5815 92% 12 369 76 84%
c {  4.19  5 10 30 53 8175 2 255610 5815 95% 8 369 76 84%
c u  4.27  5 10 30 53 8241 2 258632 7582 95% 7 369 76 84%
c v  4.28  5 10 30 53 8241 2 258632 7535 95% 7 369 76 84%
c -  4.34  4 10 30 54 8375 2 261688 5383 95% 7 369 76 84%
c i  4.37  4 10 30 54 8410 2 263345 7029 95% 7 369 75 82%
c -  4.46  4 10 30 55 9146 2 269036 2739 95% 8 361 75 82%
c -  4.56  4 10 30 56 9217 2 276454 6984 95% 7 361 75 82%
c }  4.61  4 10 31 56 9314 2 280163 10667 95% 7 361 75 82%
c [  4.61  4 17 31 56 9314 1 280163 10667 92% 12 361 75 82%
c B  4.61  4 17 31 56 9314 1 280163 10667 92% 12 361 75 82%
c u  4.68  5 17 31 56 9316 1 282863 13056 93% 12 361 75 82%
c v  4.69  5 17 31 56 9316 1 282863 12929 93% 12 361 75 82%
c -  4.71  4 17 31 57 9316 1 283937 8745 93% 12 361 75 82%
c -  4.86  5 17 31 58 9320 1 291487 7634 92% 11 361 75 82%
c i  4.86  5 17 31 58 9320 1 291510 7656 92% 11 361 74 81%
c ]  4.99  5 17 32 58 9325 1 298560 14490 93% 11 361 74 81%
c {  4.99  5 10 32 58 9325 2 298560 14490 95% 7 361 74 81%
c -  5.02  4 10 32 59 9340 2 299102 3982 95% 7 353 74 81%
c -  5.14  4 10 32 60 9560 2 306785 7003 95% 7 353 74 81%
c
c  seconds   switched    rate           trail  variables
c         MB   reductions  conflicts       glue    remaining
c          level    restarts     redundant irredundant
c
c u  5.19  4 10 32 60 9582 2 308137 4941 95% 7 353 74 81%
c v  5.20  4 10 32 60 9582 2 308137 4809 95% 7 353 74 81%
c i  5.23  4 10 32 60 9582 2 309782 6446 95% 7 353 73 80%
c -  5.29  4 10 32 61 9692 2 314530 3936 95% 7 344 73 80%
c -  5.41  4 10 32 62 10182 2 322340 7860 95% 7 344 73 80%
c }  5.44  4 10 33 62 10229 2 324392 9901 95% 7 344 73 80%
c [  5.44  4 17 33 62 10229 1 324392 9901 93% 11 344 73 80%
c W  5.45  4 17 33 62 10229 1 324392 9901 93% 11 344 73 80%
c -  5.56  5 17 33 63 10233 1 330215 8466 93% 11 344 73 80%
c i  5.63  5 17 33 63 10235 1 333883 11976 92% 11 344 72 79%
c u  5.66  5 17 33 63 10235 1 334441 1092 93% 11 344 72 79%
c v  5.66  5 17 33 63 10235 1 334441 978 93% 11 344 72 79%
c -  5.71  4 17 33 64 10236 1 338153 1924 92% 11 335 72 79%
c i  5.82  4 16 33 64 10241 1 344286 7743 92% 11 335 71 78%
c ]  5.85  5 17 34 64 10242 1 345938 9365 92% 11 335 71 78%
c {  5.85  5 10 34 64 10242 2 345938 9365 95% 7 335 71 78%
c -  5.86  4 10 34 65 10249 2 346153 877 95% 7 326 71 78%
c -  5.96  4 10 34 66 10724 2 354216 5189 95% 7 326 71 78%
c u  6.10  4 10 34 66 11016 2 361744 5316 95% 7 326 71 78%
c v  6.10  4 10 34 66 11016 2 361744 5214 95% 7 326 71 78%
c
c  seconds   switched     rate           trail  variables
c         MB   reductions   conflicts       glue    remaining
c          level    restarts      redundant irredundant
c
c -  6.12  4 10 34 67 11129 2 362341 1831 95% 7 326 71 78%
c -  6.24  5 10 34 68 11665 2 370527 5835 95% 7 326 71 78%
c i  6.27  5 10 34 68 11752 2 372591 7886 95% 7 326 70 77%
c i  6.35  4 10 34 68 11825 2 377794 13062 95% 7 326 69 76%
c -  6.38  4 10 34 69 11885 2 378773 1189 95% 7 310 69 76%
c }  6.38  4 10 35 69 11907 2 379154 1570 95% 7 310 69 76%
c [  6.38  4 17 35 69 11907 1 379154 1570 92% 11 310 69 76%
c O  6.38  4 17 35 69 11907 1 379154 1570 92% 11 310 69 76%
c -  6.53  5 16 35 70 11912 1 387080 4442 92% 11 310 69 76%
c i  6.53  5 16 35 70 11912 1 387159 4513 92% 11 310 68 75%
c u  6.59  4 16 35 70 11913 1 389762 3881 92% 11 310 68 75%
c v  6.59  4 16 35 70 11913 1 389762 3869 92% 11 310 68 75%
c -  6.71  5 16 35 71 11916 1 395446 4071 92% 11 303 68 75%
c i  6.72  5 16 35 71 11917 1 396011 4617 92% 11 303 67 74%
c ]  6.82  5 16 36 71 11920 1 400660 9131 92% 11 303 67 74%
c {  6.82  5 10 36 71 11920 2 400660 9131 95% 7 303 67 74%
c i  6.83  4 10 36 71 11940 2 401234 9699 95% 7 303 66 73%
c i  6.86  4 10 36 71 11947 2 402823 11281 95% 7 303 65 71%
c -  6.88  4 10 36 72 11996 2 403873 2886 95% 7 280 65 71%
c i  6.92  4 10 36 72 12032 2 406921 5912 95% 7 280 64 70%
c
c  seconds   switched     rate           trail  variables
c         MB   reductions   conflicts       glue    remaining
c          level    restarts      redundant irredundant
c
c -  7.01  4 10 36 73 12371 2 412358 4352 95% 7 273 64 70%
c i  7.04  4 10 36 73 12389 2 414156 6136 95% 7 273 63 69%
c u  7.14  4 10 36 73 12564 2 418512 6528 95% 7 273 63 69%
c v  7.15  4 10 36 73 12564 2 418512 6365 95% 7 273 63 69%
c i  7.16  5 10 36 73 12564 2 418855 6704 95% 7 273 62 68%
c -  7.20  4 10 36 74 12770 2 420903 3128 95% 7 259 62 68%
c i  7.23  4 10 36 74 12839 2 423544 5749 95% 7 259 61 67%
c i  7.28  4 10 36 74 12904 2 426384 8552 95% 7 259 60 66%
c i  7.32  4 10 36 74 12938 2 429331 11486 95% 7 259 59 65%
c -  7.33  4 10 36 75 12944 2 429509 2267 95% 7 239 59 65%
c i  7.35  4 10 36 75 12974 2 430703 3458 95% 7 239 58 64%
c }  7.35  4 10 37 75 12992 2 431108 3862 95% 7 239 58 64%
c [  7.35  4 16 37 75 12992 1 431108 3862 92% 11 239 58 64%
c i  7.36  4 16 37 75 12992 1 431770 4521 92% 11 239 57 63%
c B  7.36  4 16 37 75 12992 1 431942 4693 92% 11 239 57 63%
c i  7.39  4 16 37 75 12994 1 433529 6239 92% 11 239 56 62%
c i  7.42  4 16 37 75 12994 1 434904 7582 92% 11 239 45 49%
c i  7.42  4 16 37 75 12994 1 434992 7660 92% 11 239 39 43%
c i  7.42  4 16 37 75 12994 1 434995 7662 92% 11 239 38 42%
c i  7.42  4 16 37 75 12994 1 435024 7684 92% 11 239 27 30%
c
c  seconds   switched     rate           trail   variables
c         MB   reductions   conflicts        glue    remaining
c          level    restarts      redundant  irredundant
c
c i  7.42  4 16 37 75 12994 1 435025 7684 92% 11 239 22 24%
c ]  7.42  4 16 37 75 12994 1 435027 7684 92% 11 239  4 4%
c 0  7.42  4 10 37 75 12994 2 435027 7684 95% 7 239  4 4%
c
c ---- [ result ] ------------------------------------------------------------
c
s UNSATISFIABLE
c
c ---- [ profiling ] ---------------------------------------------------------
c
c           6.92   93.20 %  search
c           3.75   50.57 %  focused
c           3.17   42.64 %  stable
c           0.50    6.79 %  simplify
c           0.49    6.53 %  probe
c           0.38    5.15 %  vivify
c           0.11    1.50 %  reduce
c           0.05    0.72 %  sweep
c           0.05    0.64 %  substitute
c           0.01    0.17 %  eliminate
c           0.01    0.09 %  walking
c           0.00    0.03 %  backbone
c           0.00    0.01 %  warmup
c           0.00    0.00 %  subsume
c           0.00    0.00 %  parse
c =============================================
c           7.42  100.00 %  total
c
c ---- [ statistics ] --------------------------------------------------------
c
c conflicts:                           435027            58588.68 per second
c decisions:                           634645                1.46 per conflict
c eliminated:                              10               11 %  variables
c propagations:                       6595423           888260    per second
c reductions:                              75             5800    interval
c rephased:                                19            22896    interval
c restarts:                             12994               33.48 interval
c strengthened:                          2721             1124 %  checks
c subsumed:                               219               90 %  checks
c vivified:                             70760               94 %  checks
c walk_improved:                            2               33 %  walks
c walks:                                    6            72504    interval
c
c ---- [ resources ] ---------------------------------------------------------
c
c maximum-resident-set-size:          5443584 bytes          5 MB
c process-time:                             7s               7.42 seconds
c
c ---- [ shutting down ] -----------------------------------------------------
c
c exit 20
